(set-info :smt-lib-version 2.6)
(set-logic QF_BV)
(set-info :category "industrial")
(declare-fun k!158 () (_ BitVec 8))
(declare-fun k!157 () (_ BitVec 8))
(declare-fun k!156 () (_ BitVec 8))
(declare-fun k!155 () (_ BitVec 8))
(declare-fun k!154 () (_ BitVec 8))
(declare-fun k!153 () (_ BitVec 8))
(declare-fun k!152 () (_ BitVec 8))
(declare-fun k!151 () (_ BitVec 8))
(declare-fun k!150 () (_ BitVec 8))
(declare-fun k!149 () (_ BitVec 8))
(declare-fun k!148 () (_ BitVec 8))
(declare-fun k!147 () (_ BitVec 8))
(declare-fun k!146 () (_ BitVec 8))
(declare-fun k!145 () (_ BitVec 8))
(declare-fun k!144 () (_ BitVec 8))
(declare-fun k!143 () (_ BitVec 8))
(assert (and (or false
         (and (bvuge k!143 #xfe) (bvule k!143 #xff))
         (and (bvuge k!144 #x80) (bvule k!144 #xff))
         (and (bvuge k!145 #x81) (bvule k!145 #xff))
         (and (bvuge k!146 #x81) (bvule k!146 #xff))
         (and (bvuge k!147 #x82) (bvule k!147 #xff))
         (and (bvuge k!148 #x82) (bvule k!148 #xff))
         (and (bvuge k!149 #x83) (bvule k!149 #xff))
         (and (bvuge k!150 #x83) (bvule k!150 #xff))
         (and (bvuge k!151 #x84) (bvule k!151 #xff))
         (and (bvuge k!152 #x84) (bvule k!152 #xff))
         (and (bvuge k!153 #x85) (bvule k!153 #xff))
         (and (bvuge k!154 #x85) (bvule k!154 #xff))
         (and (bvuge k!155 #x86) (bvule k!155 #xff))
         (and (bvuge k!156 #x86) (bvule k!156 #xff))
         (and (bvuge k!157 #x87) (bvule k!157 #xff))
         (and (bvuge k!158 #x87) (bvule k!158 #xff)))
     (not (and (= k!143 #x01)
               (= k!144 #x02)
               (= k!145 #x03)
               (= k!146 #x04)
               (= k!147 #x05)
               (= k!148 #x06)
               (= k!149 #x07)
               (= k!150 #x08)
               (= k!151 #x09)
               (= k!152 #x0a)
               (= k!153 #x0b)
               (= k!154 #x0c)
               (= k!155 #x0d)
               (= k!156 #x0e)
               (= k!157 #x0f)
               (= k!158 #x10)))))
(maximize k!158)
(check-sat)